language Essence 1.3

letting bot_end be [16, 58, 159, 59, 47, 153, 2, 17, 60, 5, 61, 122, 62, 15, 137, 10, 53, 152; int(1..18)]
letting bot_start be [6, 63, 11, 151, 32, 128, 154, 74, 31, 18, 33, 127, 27, 83, 116, 115, 119, 84; int(1..18)]
letting bots be 18
letting buffer_col be 2
letting buffer_row be 2
letting corridor_size be 1
letting n_shelves_col be 4
letting n_shelves_row be 3
letting shelf_col_size be 2
letting shelf_row_size be 1
